File "./GRP738-1/SMT.v", line 6, characters 0-15:
Warning: Interpreting this declaration as if a global declaration prefixed by
"Local", i.e. as a global declaration which shall not be available without
qualification when imported. [local-declaration,vernacular,default]
File "./GRP738-1/SMT.v", line 7, characters 0-15:
Warning: Interpreting this declaration as if a global declaration prefixed by
"Local", i.e. as a global declaration which shall not be available without
qualification when imported. [local-declaration,vernacular,default]
File "./GRP738-1/SMT.v", line 8, characters 0-15:
Warning: Interpreting this declaration as if a global declaration prefixed by
"Local", i.e. as a global declaration which shall not be available without
qualification when imported. [local-declaration,vernacular,default]
File "./GRP738-1/SMT.v", line 9, characters 0-26:
Warning: Interpreting this declaration as if a global declaration prefixed by
"Local", i.e. as a global declaration which shall not be available without
qualification when imported. [local-declaration,vernacular,default]
File "./GRP738-1/SMT.v", line 10, characters 0-28:
Warning: Interpreting this declaration as if a global declaration prefixed by
"Local", i.e. as a global declaration which shall not be available without
qualification when imported. [local-declaration,vernacular,default]
File "./GRP738-1/SMT.v", line 11, characters 0-26:
Warning: Interpreting this declaration as if a global declaration prefixed by
"Local", i.e. as a global declaration which shall not be available without
qualification when imported. [local-declaration,vernacular,default]
File "./GRP738-1/SMT.v", line 12, characters 0-18:
Warning: Interpreting this declaration as if a global declaration prefixed by
"Local", i.e. as a global declaration which shall not be available without
qualification when imported. [local-declaration,vernacular,default]
veriT --proof-prune --proof-merge --proof-with-sharing --cnf-definitional --disable-ackermann --input=smtlib2 --proof=/tmp/verit_coq9c6fd1.vtlog /tmp/verit_coq9c6fd1.smt2 2> /tmp/warnings_verit1689bc.log
veriT dev - the SMT-solver veriT (UFRN/LORIA).
success
success
success
success
success
success
success
success
success
success
success
success
success
success
success
success
unknown
success
success
Verit = 0.00006
(set-option :print-success true)
(set-option :produce-assignments true)
(set-option :produce-proofs true)
(set-logic QF_UFLIA)
(declare-fun op_2 () Int)
(declare-fun op_4 (Int Int ) Int)
(declare-fun op_0 () Int)
(declare-fun op_3 (Int Int ) Int)
(declare-fun op_1 () Int)
(assert (not (= (op_3 op_0 (op_3 op_1 op_2)) (op_3 (op_4 (op_3 op_0 op_1) op_0) (op_3 op_0 op_2)))))
(check-sat)
(get-model)
File "./GRP738-1/SMT.v", line 26, characters 2-5:
Error:
CVC4 returned sat. Here is the model:

a := 1
b := -1
c := 0
mult := fun BOUND_VARIABLE_317 BOUND_VARIABLE_318 => if BOUND_VARIABLE_317 = -1 then if BOUND_VARIABLE_318 = 0 then 2 else -4 else if BOUND_VARIABLE_317 = 1 then if BOUND_VARIABLE_318 = 2 then -2 else if BOUND_VARIABLE_318 = -1 then 3 else if BOUND_VARIABLE_318 = 0 then 4 else -4 else -4
rd := fun _ _ => -3

